<number of tasks>
50

<cycle time>
1000

<order strength>
0.198


<task times>
1 577
2 664
3 230
4 563
5 508
6 373
7 413
8 435
9 463
10 482
11 745
12 531
13 789
14 605
15 544
16 407
17 457
18 364
19 758
20 535
21 490
22 250
23 340
24 279
25 451
26 562
27 588
28 445
29 533
30 350
31 621
32 530
33 739
34 510
35 581
36 315
37 584
38 428
39 602
40 609
41 636
42 560
43 335
44 488
45 427
46 502
47 400
48 488
49 568
50 444

<precedence relations>
3,9
4,7
4,10
4,12
4,13
4,14
5,11
5,12
6,8
7,17
9,36
10,16
10,29
11,20
13,15
13,19
14,18
15,21
16,23
16,24
16,25
17,27
17,37
19,20
19,22
19,26
20,27
20,31
21,29
23,49
24,28
25,30
26,27
26,48
27,33
27,35
29,32
31,34
32,36
32,37
32,39
32,41
32,43
33,40
33,44
34,42
35,38
39,46
41,48
42,45
42,49
43,46
43,50
44,47

<end>
